52376
0 1 1 1 1 1 0 1 1 1 1 1 1 1 1 1 0 0 0 1 1 1 1 1 1 1 1 1 1 1
19 20 1 8 9 26 8 3 24 25 9 4 10 14 9 2 7 21 5 20 13 24 4 19 14 8 7 22 3 21 4 10 7 3 2 25 7 24 24 10 1 12 12 1 3 22 12 5 22 19 3 14 24 4 24 4 5 9 14 1 12 27 13 29 15 21 5 14 9 10 29 3 2 8 5 15 13 11 3 14 5 12 11 23 20 5 4 2 24 15 9 29 2 8 29 23 20 29 22 3 2 9 19 11 27 7 1 23 13 9 25 1 9 21 7 11 20 8 11 2 15 10 10 13 28 15 21 20 8 2 23 12 12 9 26 26 5 23 14 1 2 22 19 11 11 19 9 8 11 9 8 11 5 22 4 25 5 24 12 28 23 8 1 15 26 13 2 5 29 23 2 14 24 20 23 10 2 14 27 4 3 4 28 22 28 15 29 4 28 29 22 8 26 20 8 10 4 1 27 8